p cnf 8 35
8 -4 0
-7 3 -6 -8 -2 5 4 1 0
-6 -8 0
-1 4 2 0
8 6 3 1 2 -5 4 0
2 4 5 3 8 -1 -6 0
6 -2 -4 8 0
-4 7 -1 -3 0
1 -6 -8 2 0
-7 6 0
-8 -1 7 -4 -3 2 0
3 -6 0
-6 4 -3 8 -1 2 -7 5 0
-6 -1 3 0
-5 -4 0
7 8 0
3 -8 -1 -5 -2 0
-4 2 -1 7 5 8 3 -6 0
-1 -3 0
-8 6 3 0
7 -1 4 8 -5 3 -6 -2 0
-5 -3 -1 0
-2 -5 -8 -1 -4 -7 -6 0
5 -7 -6 1 4 0
7 5 -1 -2 3 8 -6 4 0
-1 -5 -2 -8 0
3 -6 8 0
8 4 -1 3 -5 0
-1 -3 -5 0
-7 5 0
-6 1 8 3 0
-5 -3 7 2 0
-7 1 5 0
-2 -1 7 -5 0
6 -4 5 2 0
